
&FORCE_EVAL
    METHOD  FIST
    &MM
        &FORCEFIELD
            &SPLINE
                RCUT_NB         12
            &END SPLINE

                    @INCLUDE ETHYLENE_NE_FF.inc
                    
        &END FORCEFIELD
        
		&POISSON
       			&EWALD
         			EWALD_TYPE   NONE
       			&END EWALD
     		&END POISSON

        &PRINT
            &ITER_INFO  SILENT
            &END ITER_INFO
            &PROGRAM_RUN_INFO LOW
                &EACH
                     MD 1
                &END EACH
            &END PROGRAM_RUN_INFO
        &END PRINT
    &END MM
    &SUBSYS
        #&COORD
        #    @INCLUDE COORD.init
        #&END COORD
        
                &VELOCITY
                    @INCLUDE VELOC.init
                &END VELOCITY
        
        @INCLUDE TOPOLOGY.include
    &END SUBSYS
&END FORCE_EVAL
            
