
&FORCE_EVAL
    METHOD  FIST
    DO_DECOMP F
    &MM
        &FORCEFIELD
            &SPLINE
                RCUT_NB         8
            &END SPLINE

                PARMTYPE CHM
                PARM_FILE_NAME ../topologies_excitons/COMBINED_ANTelec_NAPhole_ANTexc.prm
                      
        &END FORCEFIELD
        
		&POISSON
       			&EWALD
         			EWALD_TYPE   NONE
       			&END EWALD
     		&END POISSON

        &PRINT
            &ITER_INFO  SILENT
            &END ITER_INFO
            &PROGRAM_RUN_INFO LOW
                &EACH
                     MD 1
                &END EACH
            &END PROGRAM_RUN_INFO
        &END PRINT
    &END MM

    &SUBSYS
        #&COORD
        #    @INCLUDE COORD.init
        #&END COORD

                &VELOCITY
                    @INCLUDE VELOC.init
                &END VELOCITY
        
        
        @INCLUDE ./TOPOLOGY.include
        
    &END SUBSYS
    &PRINT
            &PROGRAM_RUN_INFO OFF
            &END PROGRAM_RUN_INFO
    &END PRINT

&END FORCE_EVAL
            
