
&FORCE_EVAL
    METHOD  FIST
    DO_DECOMP T
    &MM
        &FORCEFIELD
            &SPLINE
                RCUT_NB         8
            &END SPLINE

            @IF ${DO_LJ} == 1
                DO_NONBONDED     T
                PARMTYPE CHM
                PARM_FILE_NAME ../topologies/charge_param/ANT/ANTHRACENE_HOLE_HUI_FF.prm
            @ENDIF
            @IF ${DO_LJ} /= 1
                DO_NONBONDED     F
                PARMTYPE CHM
                PARM_FILE_NAME ../topologies/charge_param/ANT/ANTHRACENE_HOLE_HUI_FF.prm
            @ENDIF
                      
        &END FORCEFIELD
        
         @IF ${DO_ES} /= 1
          &POISSON
            &EWALD
                EWALD_TYPE   NONE
            &END EWALD
          &END POISSON
       @ENDIF

        @IF ${DO_ES} == 1

          &POISSON
            &EWALD
                EWALD_TYPE   DSF
                RCUT         16
                ALPHA        0.09
                &CHARGE_STATE
                 -0.06088
                 -0.12889
                 0.14473
                 -0.21810
                 0.14473
                 -0.12889
                 -0.06088
                 0.15486
                 0.15891
                 0.18063
                 0.15891
                 0.15486
                 0.14473
                 -0.21810
                 0.14473
                 -0.12889
                 0.18063
                 -0.12889
                 -0.06088
                 0.15891
                 -0.06088
                 0.15891
                 0.15486
                 0.15486
                   PRINT_CHARGES     T
                &END CHARGE_STATE
            &END EWALD
          &END POISSON            
     @ENDIF
 

        &PRINT
            &ITER_INFO  SILENT
            &END ITER_INFO
            &PROGRAM_RUN_INFO LOW
                &EACH
                     MD 1
                &END EACH
            &END PROGRAM_RUN_INFO
        &END PRINT
    &END MM
    @INCLUDE DECOMP.include
    &SUBSYS
        #&COORD
        #    @INCLUDE COORD.init
        #&END COORD
        
                &VELOCITY
                    @INCLUDE VELOC.init
                &END VELOCITY
        
        
     @IF ${DO_LJ} /= 1
        @INCLUDE TOPOLOGY-CHARGE-ONLY.include
     @ENDIF
     @IF ${DO_LJ} == 1
        @INCLUDE TOPOLOGY-NEUTRAL-ONLY.include
     @ENDIF
        
    &END SUBSYS
    &PRINT
            &PROGRAM_RUN_INFO OFF
            &END PROGRAM_RUN_INFO
    &END PRINT

&END FORCE_EVAL
            
